# x   |  y    | demand	| numItems | l - w (for each item)
0.0	0.0	0.0	0
3.0	1.0	300.0	3	7	11	10	5	30	3
3.0	3.0	300.0	3	26	3	16	3	27	2
1.0	3.0	300.0	2	4	10	6	7
-1.0	3.0	300.0	1	16	6
-3.0	3.0	300.0	2	4	12	30	2
-3.0	1.0	300.0	3	11	7	15	3	13	3
-3.0	-1.0	300.0	2	8	5	14	2
-3.0	-3.0	300.0	2	7	9	18	2
-1.0	-3.0	300.0	2	6	10	12	3
1.0	-3.0	300.0	1	21	2
3.0	-3.0	300.0	3	6	12	6	12	10	6
3.0	-1.0	300.0	1	12	8
5.0	1.0	180.0	2	14	3	12	3
5.0	3.0	180.0	3	18	4	30	3	18	3
5.0	5.0	180.0	1	7	14
3.0	5.0	180.0	2	8	12	13	2
1.0	5.0	180.0	1	18	3
-1.0	5.0	180.0	3	6	16	5	7	30	3
-3.0	5.0	180.0	2	12	8	30	3
-5.0	5.0	180.0	1	9	7
-5.0	3.0	180.0	1	7	9
-5.0	1.0	180.0	3	7	11	12	7	27	3
-5.0	-1.0	180.0	1	13	2
-5.0	-3.0	180.0	1	9	8
-5.0	-5.0	180.0	2	7	13	6	13
-3.0	-5.0	180.0	2	6	7	15	3
-1.0	-5.0	180.0	3	7	11	14	5	28	3
1.0	-5.0	180.0	2	5	16	15	3
3.0	-5.0	180.0	3	7	16	24	4	22	3
5.0	-5.0	180.0	3	5	15	5	7	15	3
5.0	-3.0	180.0	2	5	14	11	6
5.0	-1.0	180.0	2	6	9	19	2
7.0	1.0	128.0	3	6	11	4	11	6	6
7.0	3.0	128.0	1	24	3
7.0	5.0	128.0	2	5	16	15	5
7.0	7.0	128.0	3	5	16	5	7	14	2
5.0	7.0	128.0	2	5	8	15	6
3.0	7.0	128.0	2	18	4	19	2
1.0	7.0	128.0	1	25	4
-1.0	7.0	128.0	2	6	9	17	3
-3.0	7.0	128.0	1	19	3
-5.0	7.0	128.0	2	13	8	12	7
-7.0	7.0	128.0	3	8	14	5	9	11	7
-7.0	5.0	128.0	3	5	13	5	6	13	3
-7.0	3.0	128.0	2	5	11	7	8
-7.0	1.0	128.0	2	6	16	7	8
-7.0	-1.0	128.0	3	12	6	9	5	25	2
-7.0	-3.0	128.0	2	11	7	25	2
-7.0	-5.0	128.0	3	14	6	18	4	23	3
-7.0	-7.0	128.0	1	25	4
-5.0	-7.0	128.0	3	5	14	6	10	23	2
-3.0	-7.0	128.0	1	30	4
-1.0	-7.0	128.0	1	12	6
1.0	-7.0	128.0	1	9	5
3.0	-7.0	128.0	2	10	7	8	7
5.0	-7.0	128.0	1	17	3
7.0	-7.0	128.0	3	7	13	7	12	8	7
7.0	-5.0	128.0	2	13	7	21	3
7.0	-3.0	128.0	3	5	14	6	12	8	8
7.0	-1.0	128.0	2	8	14	12	4
9.0	1.0	100.0	2	4	12	16	6
9.0	3.0	100.0	1	8	12
9.0	5.0	100.0	1	12	7
9.0	7.0	100.0	3	8	10	16	4	23	3
9.0	9.0	100.0	3	7	10	7	7	19	3
7.0	9.0	100.0	2	8	7	25	4
5.0	9.0	100.0	2	7	14	13	4
3.0	9.0	100.0	3	4	11	10	8	8	6
1.0	9.0	100.0	1	9	7
-1.0	9.0	100.0	3	5	14	9	5	17	4
-3.0	9.0	100.0	2	5	13	22	2
-5.0	9.0	100.0	2	6	11	21	3
-7.0	9.0	100.0	1	13	8
-9.0	9.0	100.0	1	17	3
-9.0	7.0	100.0	2	27	3	25	2
-9.0	5.0	100.0	3	12	6	5	6	18	4
-9.0	3.0	100.0	3	7	13	5	8	12	6
-9.0	1.0	100.0	1	20	3
-9.0	-1.0	100.0	3	9	7	26	2	19	2
-9.0	-3.0	100.0	1	11	5
-9.0	-5.0	100.0	2	7	14	8	5
-9.0	-7.0	100.0	1	21	2
-9.0	-9.0	100.0	2	7	16	13	2
-7.0	-9.0	100.0	1	14	6
-5.0	-9.0	100.0	2	8	6	20	4
-3.0	-9.0	100.0	1	11	7
-1.0	-9.0	100.0	2	19	4	13	4
1.0	-9.0	100.0	3	8	10	15	7	13	3
3.0	-9.0	100.0	1	16	6
5.0	-9.0	100.0	1	12	7
7.0	-9.0	100.0	2	14	6	22	3
9.0	-9.0	100.0	3	6	16	10	7	24	2
9.0	-7.0	100.0	1	4	16
9.0	-5.0	100.0	2	6	12	13	4
9.0	-3.0	100.0	1	26	4
9.0	-1.0	100.0	3	12	5	30	4	21	3
11.0	1.0	81.0	2	14	4	28	2
11.0	3.0	81.0	2	13	7	12	3
11.0	5.0	81.0	1	12	8
11.0	7.0	81.0	3	6	11	14	7	22	3
11.0	9.0	81.0	3	5	9	4	9	13	5
11.0	11.0	81.0	3	5	12	4	8	19	4
9.0	11.0	81.0	2	15	8	12	3
7.0	11.0	81.0	3	7	13	5	8	18	3
5.0	11.0	81.0	2	11	6	12	3
3.0	11.0	81.0	2	8	13	10	5
1.0	11.0	81.0	2	5	14	5	9
-1.0	11.0	81.0	3	6	16	8	14	8	10
-3.0	11.0	81.0	3	6	16	15	6	14	5
-5.0	11.0	81.0	1	5	12
-7.0	11.0	81.0	3	5	14	15	7	27	4
-9.0	11.0	81.0	1	23	3
-11.0	11.0	81.0	2	24	3	14	3
-11.0	9.0	81.0	3	5	11	7	10	22	3
-11.0	7.0	81.0	1	4	10
-11.0	5.0	81.0	2	5	15	14	3
-11.0	3.0	81.0	1	24	3
-11.0	1.0	81.0	3	7	11	5	9	10	5
-11.0	-1.0	81.0	3	8	12	15	8	26	2
-11.0	-3.0	81.0	1	8	14
-11.0	-5.0	81.0	3	4	9	20	4	24	3
-11.0	-7.0	81.0	3	8	14	6	7	25	3
-11.0	-9.0	81.0	2	29	3	30	2
-11.0	-11.0	81.0	2	8	11	7	7
-9.0	-11.0	81.0	1	31	4
-7.0	-11.0	81.0	2	9	6	19	2
-5.0	-11.0	81.0	1	4	9
-3.0	-11.0	81.0	2	14	5	16	3
-1.0	-11.0	81.0	2	4	15	16	5
1.0	-11.0	81.0	1	13	7
3.0	-11.0	81.0	2	5	16	11	8
5.0	-11.0	81.0	1	8	10
7.0	-11.0	81.0	1	5	14
9.0	-11.0	81.0	3	6	16	20	3	15	2
11.0	-11.0	81.0	1	5	7
11.0	-9.0	81.0	2	11	8	10	8
11.0	-7.0	81.0	3	6	16	15	8	9	5
11.0	-5.0	81.0	3	8	15	7	9	15	5
11.0	-3.0	81.0	3	4	12	7	10	11	5
11.0	-1.0	81.0	3	4	15	28	4	17	4
13.0	1.0	69.0	3	23	4	22	3	21	3
13.0	3.0	69.0	2	12	8	15	6
13.0	5.0	69.0	1	10	5
13.0	7.0	69.0	3	6	15	8	11	12	3
13.0	9.0	69.0	1	21	2
13.0	11.0	69.0	2	7	11	7	9
13.0	13.0	69.0	1	6	10
11.0	13.0	69.0	2	6	13	8	8
9.0	13.0	69.0	2	6	12	12	5
7.0	13.0	69.0	2	14	4	12	2
5.0	13.0	69.0	3	6	8	8	7	27	2
3.0	13.0	69.0	3	5	9	13	7	12	7
1.0	13.0	69.0	1	12	8
-1.0	13.0	69.0	1	8	6
-3.0	13.0	69.0	2	8	8	32	3
-5.0	13.0	69.0	2	5	12	12	5
-7.0	13.0	69.0	2	16	3	16	2
-9.0	13.0	69.0	3	11	7	11	7	9	4
-11.0	13.0	69.0	2	4	8	14	4
-13.0	13.0	69.0	3	6	13	5	6	27	4
-13.0	11.0	69.0	2	13	4	13	3
-13.0	9.0	69.0	3	10	7	15	4	27	3
-13.0	7.0	69.0	3	6	11	7	8	31	3
-13.0	5.0	69.0	3	5	13	12	7	14	5
-13.0	3.0	69.0	1	14	3
-13.0	1.0	69.0	2	4	11	27	3
-13.0	-1.0	69.0	3	11	8	11	6	14	2
-13.0	-3.0	69.0	2	15	8	5	6
-13.0	-5.0	69.0	3	6	9	12	6	19	4
-13.0	-7.0	69.0	3	4	6	32	3	27	3
-13.0	-9.0	69.0	2	9	7	28	3
-13.0	-11.0	69.0	3	5	6	31	3	30	3
-13.0	-13.0	69.0	2	7	10	20	4
-11.0	-13.0	69.0	1	13	7
-9.0	-13.0	69.0	2	5	14	6	9
-7.0	-13.0	69.0	1	28	3
-5.0	-13.0	69.0	3	9	8	9	7	26	4
-3.0	-13.0	69.0	2	8	13	31	2
-1.0	-13.0	69.0	1	23	2
1.0	-13.0	69.0	2	9	6	14	5
3.0	-13.0	69.0	3	7	9	14	5	14	3
5.0	-13.0	69.0	1	22	2
7.0	-13.0	69.0	3	4	7	14	6	31	2
9.0	-13.0	69.0	2	5	16	26	3
11.0	-13.0	69.0	2	5	14	14	7
13.0	-13.0	69.0	3	5	12	13	7	13	3
13.0	-11.0	69.0	1	12	7
13.0	-9.0	69.0	2	6	14	20	3
13.0	-7.0	69.0	2	10	4	16	3
13.0	-5.0	69.0	3	5	9	14	7	21	2
13.0	-3.0	69.0	3	6	11	6	7	16	4
13.0	-1.0	69.0	2	6	8	15	3
15.0	1.0	60.0	1	30	3
15.0	3.0	60.0	1	11	8
15.0	5.0	60.0	2	7	9	16	2
15.0	7.0	60.0	1	28	2
15.0	9.0	60.0	3	8	8	14	4	17	3
15.0	11.0	60.0	3	5	8	21	4	13	4
15.0	13.0	60.0	1	5	9
15.0	15.0	60.0	1	17	3
13.0	15.0	60.0	3	8	5	24	4	14	4
11.0	15.0	60.0	2	6	14	10	8
9.0	15.0	60.0	1	6	6
7.0	15.0	60.0	3	8	6	15	4	22	2
5.0	15.0	60.0	2	6	12	7	10
3.0	15.0	60.0	2	8	14	6	8
1.0	15.0	60.0	1	15	6
-1.0	15.0	60.0	2	4	16	8	8
-3.0	15.0	60.0	3	6	9	16	7	7	7
-5.0	15.0	60.0	3	11	7	7	6	27	4
-7.0	15.0	60.0	2	5	16	15	6
-9.0	15.0	60.0	1	16	7
-11.0	15.0	60.0	1	6	14
-13.0	15.0	60.0	3	5	13	14	6	19	2
-15.0	15.0	60.0	1	8	10
-15.0	13.0	60.0	1	24	4
-15.0	11.0	60.0	2	5	11	8	4
-15.0	9.0	60.0	2	4	9	21	2
-15.0	7.0	60.0	2	12	5	13	2
-15.0	5.0	60.0	1	20	3
-15.0	3.0	60.0	2	11	5	26	3
-15.0	1.0	60.0	1	7	9
-15.0	-1.0	60.0	1	25	3
-15.0	-3.0	60.0	2	5	13	25	2
-15.0	-5.0	60.0	3	5	16	13	8	25	3
-15.0	-7.0	60.0	3	5	12	25	3	13	3
-15.0	-9.0	60.0	3	4	10	29	3	14	3
-15.0	-11.0	60.0	2	6	12	8	4
-15.0	-13.0	60.0	3	4	15	7	10	18	4
-15.0	-15.0	60.0	1	28	3
-13.0	-15.0	60.0	3	13	6	24	3	20	3
-11.0	-15.0	60.0	1	15	4
-9.0	-15.0	60.0	3	7	12	7	10	12	5
-7.0	-15.0	60.0	2	7	13	15	5
-5.0	-15.0	60.0	1	15	3
-3.0	-15.0	60.0	3	7	11	10	5	14	4
-1.0	-15.0	60.0	1	6	9
1.0	-15.0	60.0	3	6	15	7	12	14	3
3.0	-15.0	60.0	2	18	3	21	2
5.0	-15.0	60.0	2	11	6	26	4
7.0	-15.0	60.0	1	7	12
9.0	-15.0	60.0	2	6	16	11	7
11.0	-15.0	60.0	1	7	11
13.0	-15.0	60.0	2	6	13	6	12
15.0	-15.0	60.0	1	13	3
15.0	-13.0	60.0	2	11	6	17	2
15.0	-11.0	60.0	1	6	16
15.0	-9.0	60.0	2	6	11	29	2
15.0	-7.0	60.0	1	9	5
15.0	-5.0	60.0	2	6	14	5	11
15.0	-3.0	60.0	2	9	8	32	3
15.0	-1.0	60.0	2	5	13	11	5